0 2288.9 2365.6 2436.3 2137.1 2380.5 2018.9 2214 2340.7 2155.1 2382.4 2474 2297 2050.2 2147.7 2160.6 2313.7 2234.6 2143.1 2212.4 2369.5 2121.6 2226.5 2112.5 2389.1 2013.7 2327.7 2049.3 2318.8 2038.5 2465.7 2470.9 2354.1 2300.6 2188.9 2077.4 2460.3 2475.4 2341.1 2437.7 2402.2 2015.2 2263.2 2180.7 2360.6 2084.6 2365 2000.3 2459.7 2252.6 2273 2434.8 2475.6 2344.5 2236.7 2317.8 2264.7 0